\ Model Routes
\ LP format - for model browsing. Use MPS format to capture full model detail.
Maximize
  - 191.7153353028244 R{0,0} + 623.2046552982704 R{0,1}
   + 623.2046552982704 R{0,2} - 249.2301939667805 R{0,3}
   + 234.7650315204939 R{0,4} + 397.2891588355392 R{0,5}
   + 449.0745601781551 R{0,6} + 306.8904272730141 R{0,7}
   + 577.8421868511019 R{0,8} + 155.6154981345337 R{0,9}
   - 256.140831891889 R{1,0} - 58.16416216887956 R{1,1}
   + 669.0062570112706 R{1,2} + 1198.881248318718 R{2,0}
   + 1198.881248318718 R{2,1} - 278.4443928850388 R{2,2}
   - 59.13410337035452 R{2,3} + 602.7748664658451 R{2,4}
   + 1100.505917706273 R{2,5} + 473.9263938819845 R{2,6}
   + 254.2699887389686 R{2,7} + 254.2699887389686 R{2,8}
   + 832.465065802254 R{2,9} - 260.2482995389823 R{3,0}
   + 967.7221973521264 R{3,1} + 1335.663160618656 R{3,2}
   + 1696.665877888776 R{3,3} + 1397.848308065656 R{3,4}
   + 997.2705851012252 R{3,5} + 1607.551096225411 R{3,6}
   + 730.5404291485 R{3,7} + 1334.55920895763 R{3,8}
   + 1676.447785172386 R{3,9} - 242.5208875955131 R{4,0}
   + 1055.572474837385 R{4,1} + 1576.196574514046 R{4,2}
   + 1088.694017263347 R{4,3} + 1282.073296445382 R{4,4}
   + 1460.065083526062 R{4,5} + 999.2203262563892 R{4,6}
   + 1269.312261964853 R{4,7} + 1066.9375567642 R{4,8}
   + 1948.139305753423 R{4,9} - 231.9775664337766 R{5,0}
   + 40.49903117334031 R{5,1} + 364.0546919427258 R{5,2}
   + 74.24428827941068 R{5,3} + 407.19691352129 R{5,4}
   - 231.1436095783099 R{6,0} + 352.5135528432641 R{6,1}
   + 1376.623169502638 R{6,2} + 1941.768530245978 R{6,3}
   + 999.4066606882502 R{6,4} + 1398.404385219093 R{6,5}
   + 1055.438241917328 R{6,6} + 836.3946111649554 R{6,7}
   + 870.4386630034801 R{6,8} + 666.5154738459437 R{6,9}
Subject To
 R00: R{0,0} <= 1
 R01: R{0,1} <= 1
 R02: R{0,2} <= 1
 R03: R{0,3} <= 1
 R04: R{0,4} <= 1
 R05: R{0,5} <= 1
 R06: R{0,6} <= 1
 R07: R{0,7} <= 1
 R08: R{0,8} <= 1
 R09: R{0,9} <= 1
 R010: R{1,0} <= 1
 R011: R{1,1} <= 1
 R012: R{1,2} <= 1
 R013: R{2,0} <= 1
 R014: R{2,1} <= 1
 R015: R{2,2} <= 1
 R016: R{2,3} <= 1
 R017: R{2,4} <= 1
 R018: R{2,5} <= 1
 R019: R{2,6} <= 1
 R020: R{2,7} <= 1
 R021: R{2,8} <= 1
 R022: R{2,9} <= 1
 R023: R{3,0} <= 1
 R024: R{3,1} <= 1
 R025: R{3,2} <= 1
 R026: R{3,3} <= 1
 R027: R{3,4} <= 1
 R028: R{3,5} <= 1
 R029: R{3,6} <= 1
 R030: R{3,7} <= 1
 R031: R{3,8} <= 1
 R032: R{3,9} <= 1
 R033: R{4,0} <= 1
 R034: R{4,1} <= 1
 R035: R{4,2} <= 1
 R036: R{4,3} <= 1
 R037: R{4,4} <= 1
 R038: R{4,5} <= 1
 R039: R{4,6} <= 1
 R040: R{4,7} <= 1
 R041: R{4,8} <= 1
 R042: R{4,9} <= 1
 R043: R{5,0} <= 1
 R044: R{5,1} <= 1
 R045: R{5,2} <= 1
 R046: R{5,3} <= 1
 R047: R{5,4} <= 1
 R048: R{6,0} <= 1
 R049: R{6,1} <= 1
 R050: R{6,2} <= 1
 R051: R{6,3} <= 1
 R052: R{6,4} <= 1
 R053: R{6,5} <= 1
 R054: R{6,6} <= 1
 R055: R{6,7} <= 1
 R056: R{6,8} <= 1
 R057: R{6,9} <= 1
 R1_0: R{0,0} + R{0,1} + R{0,2} + R{0,3} + R{0,4} + R{0,5} + R{0,6}
   + R{0,7} + R{0,8} + R{0,9} <= 1
 R1_1: R{1,0} + R{1,1} + R{1,2} <= 1
 R1_2: R{2,0} + R{2,1} + R{2,2} + R{2,3} + R{2,4} + R{2,5} + R{2,6}
   + R{2,7} + R{2,8} + R{2,9} <= 1
 R1_3: R{3,0} + R{3,1} + R{3,2} + R{3,3} + R{3,4} + R{3,5} + R{3,6}
   + R{3,7} + R{3,8} + R{3,9} <= 1
 R1_4: R{4,0} + R{4,1} + R{4,2} + R{4,3} + R{4,4} + R{4,5} + R{4,6}
   + R{4,7} + R{4,8} + R{4,9} <= 1
 R1_5: R{5,0} + R{5,1} + R{5,2} + R{5,3} + R{5,4} <= 1
 R1_6: R{6,0} + R{6,1} + R{6,2} + R{6,3} + R{6,4} + R{6,5} + R{6,6}
   + R{6,7} + R{6,8} + R{6,9} <= 1
 R2_0: <= 0
 R2_1: 10 R{3,1} + 10 R{3,2} + 10 R{3,3} + 10 R{3,4} + 10 R{3,6}
   + 10 R{3,7} + 10 R{3,8} + 10 R{3,9} <= 10
 R2_2: <= 0
 R2_3: 4 R{5,1} + 4 R{5,2} + 4 R{5,3} + 4 R{5,4} <= 4
 R2_4: <= 0
 R2_5: 5 R{5,1} + 5 R{5,2} <= 5
 R2_6: 10 R{6,1} + 10 R{6,2} + 10 R{6,3} + 10 R{6,4} + 10 R{6,5}
   + 10 R{6,6} + 10 R{6,7} + 10 R{6,9} <= 10
 R2_7: <= 0
 R2_8: <= 0
 R2_9: 12 R{4,1} + 12 R{4,2} + 12 R{4,3} + 12 R{4,4} + 12 R{4,7}
   + 12 R{4,8} + 12 R{4,9} <= 12
 R2_10: 8 R{6,1} + 8 R{6,2} + 8 R{6,3} + 8 R{6,4} + 8 R{6,5} + 8 R{6,6}
   + 8 R{6,9} <= 8
 R2_11: <= 0
 R2_12: <= 0
 R2_13: <= 0
 R2_14: <= 0
 R2_15: 11 R{0,0} + 11 R{0,1} + 11 R{0,2} + 11 R{0,9} + 11 R{4,1}
   + 11 R{4,2} + 11 R{4,3} + 11 R{4,4} + 11 R{4,6} <= 11
 R2_16: <= 0
 R2_17: <= 0
 R2_18: <= 0
 R2_19: 11 R{0,7} + 11 R{2,7} + 11 R{2,8} + 11 R{4,1} + 11 R{4,2}
   + 11 R{4,3} + 11 R{4,4} + 11 R{4,5} + 11 R{4,7} + 11 R{4,8} + 11 R{4,9}
   <= 11
 R2_20: 13 R{0,5} + 13 R{2,5} + 13 R{3,1} + 13 R{3,2} + 13 R{3,3}
   + 13 R{3,4} + 13 R{3,5} + 13 R{3,6} + 13 R{3,8} + 13 R{3,9} + 13 R{5,2}
   <= 13
 R2_21: <= 0
 R2_22: 10 R{4,3} + 10 R{4,4} + 10 R{4,5} + 10 R{4,6} <= 10
 R2_23: 14 R{0,1} + 14 R{0,2} + 14 R{0,8} + 14 R{2,0} + 14 R{2,1}
   + 14 R{2,9} + 14 R{6,2} + 14 R{6,3} <= 14
 R2_24: 10 R{3,1} + 10 R{3,2} + 10 R{3,3} + 10 R{3,5} + 10 R{3,6}
   + 10 R{3,7} + 10 R{3,8} + 10 R{6,8} <= 10
 R2_25: 13 R{4,1} + 13 R{4,2} + 13 R{4,7} + 13 R{4,8} + 13 R{4,9}
   + 13 R{6,8} <= 13
 R2_26: 6 R{1,1} + 6 R{1,2} <= 6
 R2_27: 5 R{3,4} + 5 R{3,6} + 5 R{3,8} + 5 R{3,9} + 5 R{4,7} + 5 R{5,4}
   + 5 R{6,5} <= 5
 R2_28: <= 0
 R2_29: <= 0
 R2_30: <= 0
 R2_31: 6 R{6,1} + 6 R{6,2} + 6 R{6,4} + 6 R{6,5} + 6 R{6,6} + 6 R{6,7}
   + 6 R{6,9} <= 6
 R2_32: 7 R{0,4} + 7 R{0,5} + 7 R{0,7} <= 7
 R2_33: <= 0
 R2_34: 5 R{3,9} + 5 R{6,6} + 5 R{6,7} + 5 R{6,8} + 5 R{6,9} <= 5
 R2_35: <= 0
 R2_36: <= 0
 R2_37: 5 R{5,1} + 5 R{5,3} + 5 R{5,4} <= 5
 R2_38: <= 0
 R2_39: <= 0
 R2_40: 15 R{2,3} + 15 R{2,4} + 15 R{2,5} + 15 R{2,7} + 15 R{2,8} <= 15
 R2_41: 5 R{3,2} + 5 R{3,3} + 5 R{3,4} + 5 R{3,6} + 5 R{3,9} + 5 R{6,4}
   + 5 R{6,5} + 5 R{6,8} <= 5
 R2_42: 4 R{2,3} + 4 R{2,4} + 4 R{2,5} <= 4
 R2_43: <= 0
 R2_44: <= 0
 R2_45: <= 0
 R2_46: 9 R{0,6} + 9 R{0,8} + 9 R{0,9} + 9 R{4,9} <= 9
 R2_47: 7 R{1,1} + 7 R{1,2} <= 7
 R2_48: 4 R{4,1} + 4 R{4,2} + 4 R{4,3} + 4 R{4,4} + 4 R{4,5} + 4 R{4,6}
   + 4 R{4,7} + 4 R{4,9} <= 4
 R2_49: <= 0
 R2_50: <= 0
 R2_51: <= 0
 R2_52: <= 0
 R2_53: 13 R{4,1} + 13 R{4,2} + 13 R{4,3} + 13 R{4,7} + 13 R{4,9} <= 13
 R2_54: 9 R{3,1} + 9 R{3,2} + 9 R{3,3} + 9 R{3,4} + 9 R{3,5} + 9 R{3,6}
   + 9 R{3,7} + 9 R{3,9} <= 9
 R2_55: <= 0
 R2_56: 6 R{2,0} + 6 R{2,1} + 6 R{2,6} + 6 R{4,4} + 6 R{4,5} + 6 R{4,6}
   + 6 R{6,2} + 6 R{6,3} + 6 R{6,4} + 6 R{6,5} + 6 R{6,6} <= 6
 R2_57: <= 0
 R2_58: <= 0
 R2_59: 10 R{3,5} + 10 R{4,8} + 10 R{6,6} + 10 R{6,7} <= 10
 R2_60: <= 0
 R2_61: 9 R{2,9} + 9 R{4,6} <= 9
 R2_62: <= 0
 R2_63: <= 0
 R2_64: <= 0
 R2_65: 5 R{2,0} + 5 R{2,1} + 5 R{6,1} + 5 R{6,2} + 5 R{6,3} + 5 R{6,9}
   <= 5
 R2_66: 7 R{3,7} <= 7
 R2_67: 3 R{0,1} + 3 R{0,2} + 3 R{0,6} + 3 R{2,0} + 3 R{2,1} + 3 R{2,6}
   + 3 R{2,9} + 3 R{4,5} <= 3
 R2_68: 6 R{4,1} + 6 R{4,3} + 6 R{4,7} + 6 R{4,8} <= 6
 R2_69: 7 R{4,1} + 7 R{4,2} + 7 R{4,3} + 7 R{4,4} + 7 R{4,5} + 7 R{4,6}
   + 7 R{4,8} + 7 R{4,9} <= 7
 R2_70: 11 R{6,1} + 11 R{6,2} + 11 R{6,3} <= 11
 R2_71: 7 R{3,1} + 7 R{3,2} + 7 R{3,3} + 7 R{3,5} + 7 R{3,7} + 7 R{3,8}
   + 7 R{6,2} + 7 R{6,3} + 7 R{6,7} <= 7
 R2_72: <= 0
 R2_73: <= 0
 R2_74: 5 R{5,1} + 5 R{5,2} + 5 R{5,3} <= 5
 R2_75: 8 R{6,1} + 8 R{6,2} + 8 R{6,3} + 8 R{6,4} + 8 R{6,5} + 8 R{6,9}
   <= 8
 R2_76: 12 R{0,4} + 12 R{3,3} <= 12
 R2_77: 7 R{1,2} + 7 R{2,4} + 7 R{2,5} + 7 R{4,2} + 7 R{4,9} + 7 R{6,3}
   <= 7
Bounds
End
